
Gurobi 8.1.0 (mac64) logging started Tue Aug 20 14:21:16 2019

Changed value of parameter LogFile to output/GurobiLog.txt
   Prev: gurobi.log  Default: 

Gurobi 8.1.0 (mac64) logging started Tue Aug 20 14:29:54 2019

Changed value of parameter LogFile to output/GurobiLog.txt
   Prev: gurobi.log  Default: 

Gurobi 8.1.0 (mac64) logging started Tue Aug 20 14:30:19 2019

Changed value of parameter LogFile to output/GurobiLog.txt
   Prev: gurobi.log  Default: 

Gurobi 8.1.0 (mac64) logging started Tue Aug 20 14:31:23 2019

Changed value of parameter LogFile to output/GurobiLog.txt
   Prev: gurobi.log  Default: 

Gurobi 8.1.0 (mac64) logging started Tue Aug 20 14:33:42 2019

Changed value of parameter LogFile to output/GurobiLog.txt
   Prev: gurobi.log  Default: 

Gurobi 8.1.0 (mac64) logging started Tue Aug 20 14:38:54 2019

Changed value of parameter LogFile to output/GurobiLog.txt
   Prev: gurobi.log  Default: 

Gurobi 8.1.0 (mac64) logging started Tue Aug 20 14:39:24 2019

Changed value of parameter LogFile to output/GurobiLog.txt
   Prev: gurobi.log  Default: 

Gurobi 8.1.0 (mac64) logging started Tue Aug 20 14:39:38 2019

Changed value of parameter LogFile to output/GurobiLog.txt
   Prev: gurobi.log  Default: 

Gurobi 8.1.0 (mac64) logging started Tue Aug 20 14:39:55 2019

Changed value of parameter LogFile to output/GurobiLog.txt
   Prev: gurobi.log  Default: 

Gurobi 8.1.0 (mac64) logging started Tue Aug 20 14:40:04 2019

Changed value of parameter LogFile to output/GurobiLog.txt
   Prev: gurobi.log  Default: 

Gurobi 8.1.0 (mac64) logging started Tue Aug 20 14:41:32 2019

Changed value of parameter LogFile to output/GurobiLog.txt
   Prev: gurobi.log  Default: 

Gurobi 8.1.0 (mac64) logging started Tue Aug 20 14:42:07 2019

Changed value of parameter LogFile to output/GurobiLog.txt
   Prev: gurobi.log  Default: 

Gurobi 8.1.0 (mac64) logging started Tue Aug 20 14:42:59 2019

Changed value of parameter LogFile to output/GurobiLog.txt
   Prev: gurobi.log  Default: 

Gurobi 8.1.0 (mac64) logging started Tue Aug 20 14:44:02 2019

Changed value of parameter LogFile to output/GurobiLog.txt
   Prev: gurobi.log  Default: 

Gurobi 8.1.0 (mac64) logging started Tue Aug 20 14:45:42 2019

Changed value of parameter LogFile to output/GurobiLog.txt
   Prev: gurobi.log  Default: 

Gurobi 8.1.0 (mac64) logging started Tue Aug 20 15:23:48 2019

Changed value of parameter LogFile to output/GurobiLog.txt
   Prev: gurobi.log  Default: 

Gurobi 8.1.0 (mac64) logging started Tue Aug 20 15:24:53 2019

Changed value of parameter LogFile to output/GurobiLog.txt
   Prev: gurobi.log  Default: 

Gurobi 8.1.0 (mac64) logging started Tue Aug 20 15:36:13 2019

Changed value of parameter LogFile to output/GurobiLog.txt
   Prev: gurobi.log  Default: 

Gurobi 8.1.0 (mac64) logging started Tue Aug 20 15:37:02 2019

Changed value of parameter LogFile to output/GurobiLog.txt
   Prev: gurobi.log  Default: 

Gurobi 8.1.0 (mac64) logging started Tue Aug 20 15:37:32 2019

Changed value of parameter LogFile to output/GurobiLog.txt
   Prev: gurobi.log  Default: 

Gurobi 8.1.0 (mac64) logging started Tue Aug 20 15:39:15 2019

Changed value of parameter LogFile to output/GurobiLog.txt
   Prev: gurobi.log  Default: 

Gurobi 8.1.0 (mac64) logging started Tue Aug 20 15:40:20 2019

Changed value of parameter LogFile to output/GurobiLog.txt
   Prev: gurobi.log  Default: 

Gurobi 8.1.0 (mac64) logging started Tue Aug 20 15:43:30 2019

Changed value of parameter LogFile to output/GurobiLog.txt
   Prev: gurobi.log  Default: 

Gurobi 8.1.0 (mac64) logging started Tue Aug 20 15:45:33 2019

Changed value of parameter LogFile to output/GurobiLog.txt
   Prev: gurobi.log  Default: 

Gurobi 8.1.0 (mac64) logging started Tue Aug 20 15:47:13 2019

Changed value of parameter LogFile to output/GurobiLog.txt
   Prev: gurobi.log  Default: 

Gurobi 8.1.0 (mac64) logging started Tue Aug 20 15:49:14 2019

Changed value of parameter LogFile to output/GurobiLog.txt
   Prev: gurobi.log  Default: 

Gurobi 8.1.0 (mac64) logging started Tue Aug 20 15:51:39 2019

Changed value of parameter LogFile to output/GurobiLog.txt
   Prev: gurobi.log  Default: 

Gurobi 8.1.0 (mac64) logging started Tue Aug 20 15:52:13 2019

Changed value of parameter LogFile to output/GurobiLog.txt
   Prev: gurobi.log  Default: 

Gurobi 8.1.0 (mac64) logging started Tue Aug 20 15:54:42 2019

Changed value of parameter LogFile to output/GurobiLog.txt
   Prev: gurobi.log  Default: 

Gurobi 8.1.0 (mac64) logging started Tue Aug 20 15:58:46 2019

Changed value of parameter LogFile to output/GurobiLog.txt
   Prev: gurobi.log  Default: 

Gurobi 8.1.0 (mac64) logging started Tue Aug 20 15:58:48 2019

Changed value of parameter LogFile to output/GurobiLog.txt
   Prev: gurobi.log  Default: 

Gurobi 8.1.0 (mac64) logging started Tue Aug 20 15:59:19 2019

Changed value of parameter LogFile to output/GurobiLog.txt
   Prev: gurobi.log  Default: 

Gurobi 8.1.0 (mac64) logging started Tue Aug 20 16:01:48 2019

Changed value of parameter LogFile to output/GurobiLog.txt
   Prev: gurobi.log  Default: 

Gurobi 8.1.0 (mac64) logging started Tue Aug 20 16:02:21 2019

Changed value of parameter LogFile to output/GurobiLog.txt
   Prev: gurobi.log  Default: 

Gurobi 8.1.0 (mac64) logging started Tue Aug 20 16:03:25 2019

Changed value of parameter LogFile to output/GurobiLog.txt
   Prev: gurobi.log  Default: 

Gurobi 8.1.0 (mac64) logging started Tue Aug 20 16:05:07 2019

Changed value of parameter LogFile to output/GurobiLog.txt
   Prev: gurobi.log  Default: 

Gurobi 8.1.0 (mac64) logging started Tue Aug 20 16:05:14 2019

Changed value of parameter LogFile to output/GurobiLog.txt
   Prev: gurobi.log  Default: 

Gurobi 8.1.0 (mac64) logging started Tue Aug 20 16:05:22 2019

Changed value of parameter LogFile to output/GurobiLog.txt
   Prev: gurobi.log  Default: 

Gurobi 8.1.0 (mac64) logging started Tue Aug 20 16:08:00 2019

Changed value of parameter LogFile to output/GurobiLog.txt
   Prev: gurobi.log  Default: 

Gurobi 8.1.0 (mac64) logging started Tue Aug 20 16:09:58 2019

Changed value of parameter LogFile to output/GurobiLog.txt
   Prev: gurobi.log  Default: 

Gurobi 8.1.0 (mac64) logging started Tue Aug 20 16:11:22 2019

Changed value of parameter LogFile to output/GurobiLog.txt
   Prev: gurobi.log  Default: 

Gurobi 8.1.0 (mac64) logging started Tue Aug 20 16:11:34 2019

Changed value of parameter LogFile to output/GurobiLog.txt
   Prev: gurobi.log  Default: 

Gurobi 8.1.0 (mac64) logging started Tue Aug 20 16:12:07 2019

Changed value of parameter LogFile to output/GurobiLog.txt
   Prev: gurobi.log  Default: 

Gurobi 8.1.0 (mac64) logging started Tue Aug 20 16:13:05 2019

Changed value of parameter LogFile to output/GurobiLog.txt
   Prev: gurobi.log  Default: 

Gurobi 8.1.0 (mac64) logging started Tue Aug 20 16:16:40 2019

Changed value of parameter LogFile to output/GurobiLog.txt
   Prev: gurobi.log  Default: 

Gurobi 8.1.0 (mac64) logging started Tue Aug 20 16:17:16 2019

Changed value of parameter LogFile to output/GurobiLog.txt
   Prev: gurobi.log  Default: 

Gurobi 8.1.0 (mac64) logging started Thu Aug 22 08:31:18 2019

Changed value of parameter LogFile to output/GurobiLog.txt
   Prev: gurobi.log  Default: 

Gurobi 8.1.0 (mac64) logging started Thu Aug 22 08:35:51 2019

Changed value of parameter LogFile to output/GurobiLog.txt
   Prev: gurobi.log  Default: 

Gurobi 8.1.0 (mac64) logging started Thu Aug 22 08:37:21 2019

Changed value of parameter LogFile to output/GurobiLog.txt
   Prev: gurobi.log  Default: 

Gurobi 8.1.0 (mac64) logging started Thu Aug 22 08:38:03 2019

Changed value of parameter LogFile to output/GurobiLog.txt
   Prev: gurobi.log  Default: 

Gurobi 8.1.0 (mac64) logging started Thu Aug 22 08:38:24 2019

Changed value of parameter LogFile to output/GurobiLog.txt
   Prev: gurobi.log  Default: 

Gurobi 8.1.0 (mac64) logging started Thu Aug 22 08:38:37 2019

Changed value of parameter LogFile to output/GurobiLog.txt
   Prev: gurobi.log  Default: 

Gurobi 8.1.0 (mac64) logging started Thu Aug 22 08:42:26 2019

Changed value of parameter LogFile to output/GurobiLog.txt
   Prev: gurobi.log  Default: 

Gurobi 8.1.0 (mac64) logging started Thu Aug 22 08:42:36 2019

Changed value of parameter LogFile to output/GurobiLog.txt
   Prev: gurobi.log  Default: 

Gurobi 8.1.0 (mac64) logging started Thu Aug 22 08:43:09 2019

Changed value of parameter LogFile to output/GurobiLog.txt
   Prev: gurobi.log  Default: 

Gurobi 8.1.0 (mac64) logging started Thu Aug 22 08:48:29 2019

Changed value of parameter LogFile to output/GurobiLog.txt
   Prev: gurobi.log  Default: 

Gurobi 8.1.0 (mac64) logging started Thu Aug 22 08:49:23 2019

Changed value of parameter LogFile to output/GurobiLog.txt
   Prev: gurobi.log  Default: 

Gurobi 8.1.0 (mac64) logging started Thu Aug 22 09:09:57 2019

Changed value of parameter LogFile to output/GurobiLog.txt
   Prev: gurobi.log  Default: 

Gurobi 8.1.0 (mac64) logging started Thu Aug 22 09:10:06 2019

Changed value of parameter LogFile to output/GurobiLog.txt
   Prev: gurobi.log  Default: 

Gurobi 8.1.0 (mac64) logging started Thu Aug 22 09:11:21 2019

Changed value of parameter LogFile to output/GurobiLog.txt
   Prev: gurobi.log  Default: 

Gurobi 8.1.0 (mac64) logging started Thu Aug 22 09:12:15 2019

Changed value of parameter LogFile to output/GurobiLog.txt
   Prev: gurobi.log  Default: 

Gurobi 8.1.0 (mac64) logging started Thu Aug 22 09:14:12 2019

Changed value of parameter LogFile to output/GurobiLog.txt
   Prev: gurobi.log  Default: 

Gurobi 8.1.0 (mac64) logging started Thu Aug 22 09:14:20 2019

Changed value of parameter LogFile to output/GurobiLog.txt
   Prev: gurobi.log  Default: 

Gurobi 8.1.0 (mac64) logging started Thu Aug 22 09:17:05 2019

Changed value of parameter LogFile to output/GurobiLog.txt
   Prev: gurobi.log  Default: 

Gurobi 8.1.0 (mac64) logging started Thu Aug 22 09:18:00 2019

Changed value of parameter LogFile to output/GurobiLog.txt
   Prev: gurobi.log  Default: 

Gurobi 8.1.0 (mac64) logging started Thu Aug 22 09:30:55 2019

Changed value of parameter LogFile to output/GurobiLog.txt
   Prev: gurobi.log  Default: 

Gurobi 8.1.0 (mac64) logging started Thu Aug 22 09:31:04 2019

Changed value of parameter LogFile to output/GurobiLog.txt
   Prev: gurobi.log  Default: 

Gurobi 8.1.0 (mac64) logging started Thu Aug 22 09:32:56 2019

Changed value of parameter LogFile to output/GurobiLog.txt
   Prev: gurobi.log  Default: 

Gurobi 8.1.0 (mac64) logging started Thu Aug 22 09:33:05 2019

Changed value of parameter LogFile to output/GurobiLog.txt
   Prev: gurobi.log  Default: 

Gurobi 8.1.0 (mac64) logging started Thu Aug 22 09:33:28 2019

Changed value of parameter LogFile to output/GurobiLog.txt
   Prev: gurobi.log  Default: 

Gurobi 8.1.0 (mac64) logging started Thu Aug 22 09:36:37 2019

Changed value of parameter LogFile to output/GurobiLog.txt
   Prev: gurobi.log  Default: 

Gurobi 8.1.0 (mac64) logging started Thu Aug 22 09:36:45 2019

Changed value of parameter LogFile to output/GurobiLog.txt
   Prev: gurobi.log  Default: 

Gurobi 8.1.0 (mac64) logging started Thu Aug 22 09:40:13 2019

Changed value of parameter LogFile to output/GurobiLog.txt
   Prev: gurobi.log  Default: 

Gurobi 8.1.0 (mac64) logging started Thu Aug 22 09:53:00 2019

Changed value of parameter LogFile to output/GurobiLog.txt
   Prev: gurobi.log  Default: 

Gurobi 8.1.0 (mac64) logging started Thu Aug 22 09:59:17 2019

Changed value of parameter LogFile to output/GurobiLog.txt
   Prev: gurobi.log  Default: 

Gurobi 8.1.0 (mac64) logging started Thu Aug 22 10:09:02 2019

Changed value of parameter LogFile to output/GurobiLog.txt
   Prev: gurobi.log  Default: 

Gurobi 8.1.0 (mac64) logging started Thu Aug 22 10:09:19 2019

Changed value of parameter LogFile to output/GurobiLog.txt
   Prev: gurobi.log  Default: 

Gurobi 8.1.0 (mac64) logging started Thu Aug 22 10:58:30 2019

Changed value of parameter LogFile to output/GurobiLog.txt
   Prev: gurobi.log  Default: 

Gurobi 8.1.0 (mac64) logging started Thu Aug 22 12:41:26 2019

Changed value of parameter LogFile to output/GurobiLog.txt
   Prev: gurobi.log  Default: 

Gurobi 8.1.0 (mac64) logging started Thu Aug 22 12:41:40 2019

Changed value of parameter LogFile to output/GurobiLog.txt
   Prev: gurobi.log  Default: 

Gurobi 8.1.0 (mac64) logging started Thu Aug 22 12:50:59 2019

Changed value of parameter LogFile to output/GurobiLog.txt
   Prev: gurobi.log  Default: 

Gurobi 8.1.0 (mac64) logging started Thu Aug 22 12:51:08 2019

Changed value of parameter LogFile to output/GurobiLog.txt
   Prev: gurobi.log  Default: 

Gurobi 8.1.0 (mac64) logging started Thu Aug 22 13:36:20 2019

Changed value of parameter LogFile to output/GurobiLog.txt
   Prev: gurobi.log  Default: 

Gurobi 8.1.0 (mac64) logging started Thu Aug 22 13:43:58 2019

Changed value of parameter LogFile to output/GurobiLog.txt
   Prev: gurobi.log  Default: 

Gurobi 8.1.0 (mac64) logging started Thu Aug 22 13:47:46 2019

Changed value of parameter LogFile to output/GurobiLog.txt
   Prev: gurobi.log  Default: 

Gurobi 8.1.0 (mac64) logging started Thu Aug 22 13:48:05 2019

Changed value of parameter LogFile to output/GurobiLog.txt
   Prev: gurobi.log  Default: 

Gurobi 8.1.0 (mac64) logging started Thu Aug 22 13:49:08 2019

Changed value of parameter LogFile to output/GurobiLog.txt
   Prev: gurobi.log  Default: 

Gurobi 8.1.0 (mac64) logging started Thu Aug 22 13:49:34 2019

Changed value of parameter LogFile to output/GurobiLog.txt
   Prev: gurobi.log  Default: 

Gurobi 8.1.0 (mac64) logging started Thu Aug 22 13:49:46 2019

Changed value of parameter LogFile to output/GurobiLog.txt
   Prev: gurobi.log  Default: 

Gurobi 8.1.0 (mac64) logging started Thu Aug 22 13:50:13 2019

Changed value of parameter LogFile to output/GurobiLog.txt
   Prev: gurobi.log  Default: 

Gurobi 8.1.0 (mac64) logging started Thu Aug 22 13:50:21 2019

Changed value of parameter LogFile to output/GurobiLog.txt
   Prev: gurobi.log  Default: 

Gurobi 8.1.0 (mac64) logging started Thu Aug 22 14:07:18 2019

Changed value of parameter LogFile to output/GurobiLog.txt
   Prev: gurobi.log  Default: 

Gurobi 8.1.0 (mac64) logging started Thu Aug 22 14:07:26 2019

Changed value of parameter LogFile to output/GurobiLog.txt
   Prev: gurobi.log  Default: 
